254,545
653,397
663,463
681,496
626,577
654,491
716,454
707,419
802,318
999,88
996,177
1095,341
999,88
871,32
802,318
823,360
956,681
1137,554
1162,651
723,140
417,42
552,7
723,140
716,454
699,524
681,736
620,791
616,820
452,721
494,501
626,577
452,721
